set VV := 0 1 2 3 4 5 6 7 8 9 10 11 12 13 14 ;
set VS := 0 1 2 3 4 5 6 7 8 9 10 11 12 13 14 15 16 17 18 19 20 21 22 23 24 25 26 27 28 29 30 31 32 33 34 ;
param cv := 
0 22
1 16
2 17
3 22
4 11
5 17
6 13
7 21
8 11
9 24
10 19
11 14
12 24
13 18
14 24
;
param cs := 
0 33
1 32
2 39
3 32
4 23
5 36
6 20
7 32
8 32
9 36
10 38
11 26
12 20
13 23
14 26
15 34
16 24
17 37
18 39
19 38
20 36
21 38
22 34
23 37
24 35
25 32
26 35
27 30
28 35
29 38
30 40
31 28
32 40
33 22
34 23
;
param bv:	 0 1 2 3 4 5 6 7 8 9 10 11 12 13 14 := 
		0 0 0 0 0 0 0 0 0 0 0 0 0 0 0 15 
		1 0 0 0 0 0 24 0 23 0 0 0 0 0 0 0 
		2 0 0 0 0 0 0 0 0 0 14 17 20 0 0 0 
		3 0 0 0 0 18 0 0 0 0 0 0 21 22 0 0 
		4 0 0 0 0 0 0 0 0 0 16 0 25 0 0 0 
		5 0 0 0 0 0 0 0 0 0 19 0 0 0 0 0 
		6 0 0 0 0 0 0 0 0 0 0 0 0 0 0 23 
		7 0 0 0 0 0 0 0 0 16 0 0 0 0 0 0 
		8 0 0 0 0 0 0 0 0 0 0 0 0 0 0 0 
		9 0 0 0 0 0 0 0 0 0 0 0 0 0 0 0 
		10 0 0 0 0 0 0 0 0 0 0 0 0 0 0 0 
		11 0 0 0 0 0 0 0 0 0 0 0 0 0 21 13 
		12 0 0 0 0 0 0 0 0 0 0 0 0 0 0 0 
		13 0 0 0 0 0 0 0 0 0 0 0 0 0 0 0 
		14 0 0 0 0 0 0 0 0 0 0 0 0 0 0 0 
;
param bs:	 0 1 2 3 4 5 6 7 8 9 10 11 12 13 14 15 16 17 18 19 20 21 22 23 24 25 26 27 28 29 30 31 32 33 34 := 
		0 0 0 0 0 0 0 34 39 0 0 0 0 0 29 0 0 0 0 0 0 0 0 0 0 0 0 0 0 0 0 0 0 0 0 0 
		1 0 0 21 0 0 0 0 0 22 0 0 0 0 0 0 0 22 0 0 0 0 0 0 0 0 0 0 0 38 0 0 0 0 0 0 
		2 0 21 0 0 0 0 0 0 0 0 31 0 0 0 25 0 0 39 0 0 0 0 0 0 26 36 0 30 0 0 0 36 0 0 24 
		3 0 0 0 0 0 0 34 0 0 0 0 0 0 0 0 0 0 0 38 0 35 0 0 0 0 0 0 0 0 0 0 0 0 0 0 
		4 0 0 0 0 0 0 35 0 0 0 0 0 0 0 0 0 0 25 0 0 0 0 0 0 0 0 0 0 0 0 0 0 0 0 0 
		5 0 0 0 0 0 0 0 0 0 0 0 36 23 0 0 38 0 0 32 29 0 0 33 0 0 0 0 0 38 0 0 0 0 40 23 
		6 34 0 0 34 35 0 0 0 0 0 0 0 0 0 0 0 0 0 0 0 0 26 0 0 0 0 0 0 0 0 0 0 0 28 0 
		7 39 0 0 0 0 0 0 0 0 0 0 0 0 0 0 0 0 0 0 38 0 22 0 0 0 0 0 0 0 0 0 0 39 0 0 
		8 0 22 0 0 0 0 0 0 0 0 0 0 0 0 0 0 0 0 0 0 0 0 0 0 38 0 0 0 0 0 0 0 0 0 0 
		9 0 0 0 0 0 0 0 0 0 0 0 0 0 0 0 0 0 0 0 0 30 0 0 0 0 0 0 0 0 0 0 0 0 0 0 
		10 0 0 31 0 0 0 0 0 0 0 0 0 0 0 0 0 0 0 0 0 0 0 0 0 0 21 0 0 0 0 0 0 0 0 0 
		11 0 0 0 0 0 36 0 0 0 0 0 0 21 0 0 0 0 0 0 0 0 21 0 35 0 0 0 37 0 0 0 0 0 0 0 
		12 0 0 0 0 0 23 0 0 0 0 0 21 0 0 0 25 29 0 0 0 0 0 0 0 25 0 0 0 0 0 31 0 0 0 25 
		13 29 0 0 0 0 0 0 0 0 0 0 0 0 0 0 36 0 0 38 0 0 0 0 0 0 0 0 0 0 0 22 24 0 0 0 
		14 0 0 25 0 0 0 0 0 0 0 0 0 0 0 0 0 0 0 0 29 0 0 0 0 0 0 0 0 0 0 0 0 0 0 0 
		15 0 0 0 0 0 38 0 0 0 0 0 0 25 36 0 0 0 0 0 0 0 0 0 0 0 0 0 0 0 0 0 0 0 26 0 
		16 0 22 0 0 0 0 0 0 0 0 0 0 29 0 0 0 0 0 0 0 0 0 0 0 0 0 20 0 0 0 0 0 0 0 0 
		17 0 0 39 0 25 0 0 0 0 0 0 0 0 0 0 0 0 0 38 0 0 27 0 0 0 0 0 0 0 0 33 0 0 0 0 
		18 0 0 0 38 0 32 0 0 0 0 0 0 0 38 0 0 0 38 0 29 0 0 30 0 0 0 0 0 33 0 0 0 0 0 0 
		19 0 0 0 0 0 29 0 38 0 0 0 0 0 0 29 0 0 0 29 0 0 0 0 0 0 0 0 0 0 0 0 0 0 0 0 
		20 0 0 0 35 0 0 0 0 0 30 0 0 0 0 0 0 0 0 0 0 0 0 0 0 0 0 37 0 0 0 0 0 0 0 38 
		21 0 0 0 0 0 0 26 22 0 0 0 21 0 0 0 0 0 27 0 0 0 0 0 0 0 0 21 0 0 0 0 0 0 0 39 
		22 0 0 0 0 0 33 0 0 0 0 0 0 0 0 0 0 0 0 30 0 0 0 0 0 0 0 0 30 0 0 0 0 0 0 0 
		23 0 0 0 0 0 0 0 0 0 0 0 35 0 0 0 0 0 0 0 0 0 0 0 0 0 0 0 0 0 0 0 0 0 0 29 
		24 0 0 26 0 0 0 0 0 38 0 0 0 25 0 0 0 0 0 0 0 0 0 0 0 0 23 20 0 0 0 0 22 0 0 0 
		25 0 0 36 0 0 0 0 0 0 0 21 0 0 0 0 0 0 0 0 0 0 0 0 0 23 0 0 0 0 0 0 0 0 0 0 
		26 0 0 0 0 0 0 0 0 0 0 0 0 0 0 0 0 20 0 0 0 37 21 0 0 20 0 0 0 0 0 0 0 25 0 0 
		27 0 0 30 0 0 0 0 0 0 0 0 37 0 0 0 0 0 0 0 0 0 0 30 0 0 0 0 0 0 0 0 31 0 27 0 
		28 0 38 0 0 0 38 0 0 0 0 0 0 0 0 0 0 0 0 33 0 0 0 0 0 0 0 0 0 0 0 0 0 0 0 0 
		29 0 0 0 0 0 0 0 0 0 0 0 0 0 0 0 0 0 0 0 0 0 0 0 0 0 0 0 0 0 0 0 0 0 0 26 
		30 0 0 0 0 0 0 0 0 0 0 0 0 31 22 0 0 0 33 0 0 0 0 0 0 0 0 0 0 0 0 0 0 0 0 36 
		31 0 0 36 0 0 0 0 0 0 0 0 0 0 24 0 0 0 0 0 0 0 0 0 0 22 0 0 31 0 0 0 0 0 0 0 
		32 0 0 0 0 0 0 0 39 0 0 0 0 0 0 0 0 0 0 0 0 0 0 0 0 0 0 25 0 0 0 0 0 0 0 0 
		33 0 0 0 0 0 40 28 0 0 0 0 0 0 0 0 26 0 0 0 0 0 0 0 0 0 0 0 27 0 0 0 0 0 0 0 
		34 0 0 24 0 0 23 0 0 0 0 0 0 25 0 0 0 0 0 0 0 38 39 0 29 0 0 0 0 0 26 36 0 0 0 0 
;
